language Essence 1.3

letting class be
        function(1 --> 4, 2 --> 9, 3 --> 4, 4 --> 4, 5 --> 9, 6 --> 5, 7 --> 10, 8 --> 6, 9 --> 1, 10 --> 10, 11 --> 9,
                 12 --> 7, 13 --> 6, 14 --> 3, 15 --> 8, 16 --> 2, 17 --> 10, 18 --> 6, 19 --> 3, 20 --> 9, 21 --> 7,
                 22 --> 3, 23 --> 3, 24 --> 9, 25 --> 5, 26 --> 9, 27 --> 5)
letting deck_length be 91
letting deck_width be 16
letting length be
        function(1 --> 1, 2 --> 1, 3 --> 1, 4 --> 1, 5 --> 22, 6 --> 1, 7 --> 1, 8 --> 6, 9 --> 2, 10 --> 1, 11 --> 1,
                 12 --> 1, 13 --> 1, 14 --> 5, 15 --> 1, 16 --> 3, 17 --> 1, 18 --> 1, 19 --> 2, 20 --> 1, 21 --> 1,
                 22 --> 1, 23 --> 1, 24 --> 1, 25 --> 1, 26 --> 1, 27 --> 1)
letting n_classes be 10
letting n_containers be 27
letting separation be function()
letting width be
        function(1 --> 7, 2 --> 3, 3 --> 13, 4 --> 10, 5 --> 14, 6 --> 3, 7 --> 1, 8 --> 15, 9 --> 14, 10 --> 5,
                 11 --> 7, 12 --> 7, 13 --> 6, 14 --> 16, 15 --> 14, 16 --> 11, 17 --> 11, 18 --> 4, 19 --> 9, 20 --> 9,
                 21 --> 1, 22 --> 9, 23 --> 13, 24 --> 3, 25 --> 1, 26 --> 8, 27 --> 6)
